(assert (forall ((pkt_0_4_6_0  Int  )(state_group_0_state_0_5_7_0  Int  )(state_group_0_state_1_6_8_0  Int  )) (let ((_n0 state_group_0_state_0_5_7_0 ))
(let ((_n1 2 ))
(let ((_n2 (ite (=  _n0  1)  _n1   _n0  ) ))
(let ((_n3 state_group_0_state_1_6_8_0 ))
(let ((_n4 false ))
(let ((_n5 (ite (=  _n0  1)  (ite  _n4  1 0)   _n3  ) ))
(let ((_n6 3 ))
(let ((_n7 (ite (=  _n5  999)  _n6   _n2  ) ))
(let ((_n8 (ite (=  _n2  2)  _n7   _n2  ) ))
(let ((_n9 (<   _n0   _n1 ) ))
(let ((_n10 (ite  _n9   (ite  _n4  1 0)   _n0  ) ))
(let ((_n11 (=   _n10   _n1 ) ))
(let ((_n12 (ite  _n9   _n4   _n11  ) ))
(let ((_n13 999 ))
(let ((_n14 (not  _n12 ) ))
(let ((_n15 (or   _n14   _n9 ) ))
(let ((_n16 (ite  _n15   (ite  _n4  1 0)   _n3  ) ))
(let ((_n17 (=   _n16   _n13 ) ))
(let ((_n18 (not  _n17 ) ))
(let ((_n19 (not  _n15 ) ))
(let ((_n20 (and   _n19   _n18 ) ))
(let ((_n21 (or   _n20   _n15 ) ))
(let ((_n22 (not  _n21 ) ))
(let ((_n23 (+   _n0   (ite  _n22  1 0) ) ))
(let ((_n24 (ite (=  (ite  _n20  1 0)  1)  _n0   _n23  ) ))
(let ((_n25 (ite (=  (ite  _n12  1 0)  1)  _n24   _n0  ) ))
(let ((_n26 (ite  _n9   _n0   (ite  _n4  1 0)  ) ))
(let ((_n27 (=   _n26   (ite  _n4  1 0) ) ))
(let ((_n28 (not  _n27 ) ))
(let ((_n29 (and   _n9   _n28 ) ))
(let ((_n30 (and   _n29   _n9 ) ))
(let ((_n31 (-  (ite  _n30  1 0) )))
(let ((_n32 (ite  _n30   _n6   (ite  _n4  1 0)  ) ))
(let ((_n33 (+   _n32   _n31 ) ))
(let ((_n34 (ite  _n30   _n33   (ite  _n4  1 0)  ) ))
(let ((_n35 (ite  _n30   (ite  _n4  1 0)   _n0  ) ))
(let ((_n36 (+   _n35   _n34 ) ))
(let ((_n37 (ite (=  (ite  _n29  1 0)  1)  _n36   _n0  ) ))
(let ((_n38 (ite (=  (ite  _n9  1 0)  1)  _n37   _n25  ) ))
(let ((_n39 (=   _n38   _n8 ) ))
(let ((_n41 true ))
(let ((_n42 (+   _n5   (ite  _n41  1 0) ) ))
(let ((_n43 (ite (=  _n2  2)  _n42   _n5  ) ))
(let ((_n44 (+   _n3   (ite  _n22  1 0) ) ))
(let ((_n45 (not  _n20 ) ))
(let ((_n46 (or   _n45   _n15 ) ))
(let ((_n47 (not  _n46 ) ))
(let ((_n48 (+   _n3   (ite  _n47  1 0) ) ))
(let ((_n49 (ite (=  (ite  _n20  1 0)  1)  _n48   _n44  ) ))
(let ((_n50 (ite (=  (ite  _n12  1 0)  1)  _n49   _n3  ) ))
(let ((_n51 (ite  _n30   (ite  _n4  1 0)   _n3  ) ))
(let ((_n52 (+   _n51   (ite  _n30  1 0) ) ))
(let ((_n53 (ite (=  (ite  _n29  1 0)  1)  _n52   _n3  ) ))
(let ((_n54 (ite (=  (ite  _n9  1 0)  1)  _n53   _n50  ) ))
(let ((_n55 (=   _n54   _n43 ) ))
(let ((_n57 pkt_0_4_6_0 ))
(let ((_n58 (ite (=  _n57  0)  _n57   (ite  _n4  1 0)  ) ))
(let ((_n59 (ite (=  _n57  0)  _n58   _n57  ) ))
(let ((_n60 (=   _n59   _n57 ) ))
(implies  (and (and (>= state_group_0_state_1_6_8_0 0) (< state_group_0_state_1_6_8_0 1024 ))  (and (and (>= state_group_0_state_0_5_7_0 0) (< state_group_0_state_0_5_7_0 1024 ))  (and (>= pkt_0_4_6_0 0) (< pkt_0_4_6_0 1024 )) ) )   (and  _n39  _n55  _n60 )  ))))))))))))))))))))))))))))))))))))))))))))))))))))))))))))))
(check-sat)
(get-model)
(exit)